p cnf 319 1176
c p weight 24 -1 0
c p weight -24 1 0
c p weight 26 6.12323399573676603586882014729198302312846062338790031898128063403419218957424163818359375E-17 0
c p weight -26 1 0
c p weight 27 1 0
c p weight -27 1 0
c p weight 28 -1 0
c p weight -28 1 0
c p weight 30 -1 0
c p weight -30 1 0
c p weight 32 -1 0
c p weight -32 1 0
c p weight 34 6.12323399573676603586882014729198302312846062338790031898128063403419218957424163818359375E-17 0
c p weight -34 1 0
c p weight 35 1 0
c p weight -35 1 0
c p weight 36 -1 0
c p weight -36 1 0
c p weight 38 -1 0
c p weight -38 1 0
c p weight 40 -1 0
c p weight -40 1 0
c p weight 42 6.12323399573676603586882014729198302312846062338790031898128063403419218957424163818359375E-17 0
c p weight -42 1 0
c p weight 43 1 0
c p weight -43 1 0
c p weight 44 -1 0
c p weight -44 1 0
c p weight 46 -1 0
c p weight -46 1 0
c p weight 49 -1 0
c p weight -49 1 0
c p weight 51 -1 0
c p weight -51 1 0
c p weight 53 6.12323399573676603586882014729198302312846062338790031898128063403419218957424163818359375E-17 0
c p weight -53 1 0
c p weight 54 1 0
c p weight -54 1 0
c p weight 55 -1 0
c p weight -55 1 0
c p weight 57 -1 0
c p weight -57 1 0
c p weight 59 -1 0
c p weight -59 1 0
c p weight 61 6.12323399573676603586882014729198302312846062338790031898128063403419218957424163818359375E-17 0
c p weight -61 1 0
c p weight 62 1 0
c p weight -62 1 0
c p weight 63 -1 0
c p weight -63 1 0
c p weight 65 -1 0
c p weight -65 1 0
c p weight 67 -1 0
c p weight -67 1 0
c p weight 69 6.12323399573676603586882014729198302312846062338790031898128063403419218957424163818359375E-17 0
c p weight -69 1 0
c p weight 70 1 0
c p weight -70 1 0
c p weight 71 -1 0
c p weight -71 1 0
c p weight 73 -1 0
c p weight -73 1 0
c p weight 76 -1 0
c p weight -76 1 0
c p weight 78 -1 0
c p weight -78 1 0
c p weight 80 6.12323399573676603586882014729198302312846062338790031898128063403419218957424163818359375E-17 0
c p weight -80 1 0
c p weight 81 1 0
c p weight -81 1 0
c p weight 82 -1 0
c p weight -82 1 0
c p weight 84 -1 0
c p weight -84 1 0
c p weight 86 -1 0
c p weight -86 1 0
c p weight 88 6.12323399573676603586882014729198302312846062338790031898128063403419218957424163818359375E-17 0
c p weight -88 1 0
c p weight 89 1 0
c p weight -89 1 0
c p weight 90 -1 0
c p weight -90 1 0
c p weight 92 -1 0
c p weight -92 1 0
c p weight 94 -1 0
c p weight -94 1 0
c p weight 96 6.12323399573676603586882014729198302312846062338790031898128063403419218957424163818359375E-17 0
c p weight -96 1 0
c p weight 97 1 0
c p weight -97 1 0
c p weight 98 -1 0
c p weight -98 1 0
c p weight 100 -1 0
c p weight -100 1 0
c p weight 102 -1 0
c p weight -102 1 0
c p weight 104 6.12323399573676603586882014729198302312846062338790031898128063403419218957424163818359375E-17 0
c p weight -104 1 0
c p weight 105 1 0
c p weight -105 1 0
c p weight 106 -1 0
c p weight -106 1 0
c p weight 108 -1 0
c p weight -108 1 0
c p weight 111 -1 0
c p weight -111 1 0
c p weight 113 -1 0
c p weight -113 1 0
c p weight 115 6.12323399573676603586882014729198302312846062338790031898128063403419218957424163818359375E-17 0
c p weight -115 1 0
c p weight 116 1 0
c p weight -116 1 0
c p weight 117 -1 0
c p weight -117 1 0
c p weight 119 -1 0
c p weight -119 1 0
c p weight 121 -1 0
c p weight -121 1 0
c p weight 123 6.12323399573676603586882014729198302312846062338790031898128063403419218957424163818359375E-17 0
c p weight -123 1 0
c p weight 124 1 0
c p weight -124 1 0
c p weight 125 -1 0
c p weight -125 1 0
c p weight 127 -1 0
c p weight -127 1 0
c p weight 130 -1 0
c p weight -130 1 0
c p weight 132 -1 0
c p weight -132 1 0
c p weight 134 6.12323399573676603586882014729198302312846062338790031898128063403419218957424163818359375E-17 0
c p weight -134 1 0
c p weight 135 1 0
c p weight -135 1 0
c p weight 136 -1 0
c p weight -136 1 0
c p weight 138 -1 0
c p weight -138 1 0
c p weight 140 -1 0
c p weight -140 1 0
c p weight 142 6.12323399573676603586882014729198302312846062338790031898128063403419218957424163818359375E-17 0
c p weight -142 1 0
c p weight 143 1 0
c p weight -143 1 0
c p weight 144 -1 0
c p weight -144 1 0
c p weight 146 -1 0
c p weight -146 1 0
c p weight 148 -1 0
c p weight -148 1 0
c p weight 150 6.12323399573676603586882014729198302312846062338790031898128063403419218957424163818359375E-17 0
c p weight -150 1 0
c p weight 151 1 0
c p weight -151 1 0
c p weight 152 -1 0
c p weight -152 1 0
c p weight 154 -1 0
c p weight -154 1 0
c p weight 157 -1 0
c p weight -157 1 0
c p weight 159 -1 0
c p weight -159 1 0
c p weight 161 6.12323399573676603586882014729198302312846062338790031898128063403419218957424163818359375E-17 0
c p weight -161 1 0
c p weight 162 1 0
c p weight -162 1 0
c p weight 163 -1 0
c p weight -163 1 0
c p weight 165 -1 0
c p weight -165 1 0
c p weight 167 -1 0
c p weight -167 1 0
c p weight 169 6.12323399573676603586882014729198302312846062338790031898128063403419218957424163818359375E-17 0
c p weight -169 1 0
c p weight 170 1 0
c p weight -170 1 0
c p weight 171 -1 0
c p weight -171 1 0
c p weight 173 -1 0
c p weight -173 1 0
c p weight 175 -1 0
c p weight -175 1 0
c p weight 177 6.12323399573676603586882014729198302312846062338790031898128063403419218957424163818359375E-17 0
c p weight -177 1 0
c p weight 178 1 0
c p weight -178 1 0
c p weight 179 -1 0
c p weight -179 1 0
c p weight 181 -1 0
c p weight -181 1 0
c p weight 184 -1 0
c p weight -184 1 0
c p weight 186 -1 0
c p weight -186 1 0
c p weight 188 6.12323399573676603586882014729198302312846062338790031898128063403419218957424163818359375E-17 0
c p weight -188 1 0
c p weight 189 1 0
c p weight -189 1 0
c p weight 190 -1 0
c p weight -190 1 0
c p weight 192 -1 0
c p weight -192 1 0
c p weight 194 -1 0
c p weight -194 1 0
c p weight 196 6.12323399573676603586882014729198302312846062338790031898128063403419218957424163818359375E-17 0
c p weight -196 1 0
c p weight 197 1 0
c p weight -197 1 0
c p weight 198 -1 0
c p weight -198 1 0
c p weight 200 -1 0
c p weight -200 1 0
c p weight 202 -1 0
c p weight -202 1 0
c p weight 204 6.12323399573676603586882014729198302312846062338790031898128063403419218957424163818359375E-17 0
c p weight -204 1 0
c p weight 205 1 0
c p weight -205 1 0
c p weight 206 -1 0
c p weight -206 1 0
c p weight 208 -1 0
c p weight -208 1 0
c p weight 211 -1 0
c p weight -211 1 0
c p weight 213 -1 0
c p weight -213 1 0
c p weight 215 6.12323399573676603586882014729198302312846062338790031898128063403419218957424163818359375E-17 0
c p weight -215 1 0
c p weight 216 1 0
c p weight -216 1 0
c p weight 217 -1 0
c p weight -217 1 0
c p weight 219 -1 0
c p weight -219 1 0
c p weight 221 -1 0
c p weight -221 1 0
c p weight 223 6.12323399573676603586882014729198302312846062338790031898128063403419218957424163818359375E-17 0
c p weight -223 1 0
c p weight 224 1 0
c p weight -224 1 0
c p weight 225 -1 0
c p weight -225 1 0
c p weight 227 -1 0
c p weight -227 1 0
c p weight 229 -1 0
c p weight -229 1 0
c p weight 231 6.12323399573676603586882014729198302312846062338790031898128063403419218957424163818359375E-17 0
c p weight -231 1 0
c p weight 232 1 0
c p weight -232 1 0
c p weight 233 -1 0
c p weight -233 1 0
c p weight 235 -1 0
c p weight -235 1 0
c p weight 238 -1 0
c p weight -238 1 0
c p weight 240 -1 0
c p weight -240 1 0
c p weight 242 6.12323399573676603586882014729198302312846062338790031898128063403419218957424163818359375E-17 0
c p weight -242 1 0
c p weight 243 1 0
c p weight -243 1 0
c p weight 244 -1 0
c p weight -244 1 0
c p weight 246 -1 0
c p weight -246 1 0
c p weight 248 -1 0
c p weight -248 1 0
c p weight 250 6.12323399573676603586882014729198302312846062338790031898128063403419218957424163818359375E-17 0
c p weight -250 1 0
c p weight 251 1 0
c p weight -251 1 0
c p weight 252 -1 0
c p weight -252 1 0
c p weight 254 -1 0
c p weight -254 1 0
c p weight 256 -1 0
c p weight -256 1 0
c p weight 258 6.12323399573676603586882014729198302312846062338790031898128063403419218957424163818359375E-17 0
c p weight -258 1 0
c p weight 259 1 0
c p weight -259 1 0
c p weight 260 -1 0
c p weight -260 1 0
c p weight 262 -1 0
c p weight -262 1 0
c p weight 265 -1 0
c p weight -265 1 0
c p weight 267 -1 0
c p weight -267 1 0
c p weight 269 6.12323399573676603586882014729198302312846062338790031898128063403419218957424163818359375E-17 0
c p weight -269 1 0
c p weight 270 1 0
c p weight -270 1 0
c p weight 271 -1 0
c p weight -271 1 0
c p weight 273 -1 0
c p weight -273 1 0
c p weight 275 -1 0
c p weight -275 1 0
c p weight 277 6.12323399573676603586882014729198302312846062338790031898128063403419218957424163818359375E-17 0
c p weight -277 1 0
c p weight 278 1 0
c p weight -278 1 0
c p weight 279 -1 0
c p weight -279 1 0
c p weight 281 -1 0
c p weight -281 1 0
c p weight 283 -1 0
c p weight -283 1 0
c p weight 285 6.12323399573676603586882014729198302312846062338790031898128063403419218957424163818359375E-17 0
c p weight -285 1 0
c p weight 286 1 0
c p weight -286 1 0
c p weight 287 -1 0
c p weight -287 1 0
c p weight 289 -1 0
c p weight -289 1 0
c p weight 292 -1 0
c p weight -292 1 0
c p weight 294 -1 0
c p weight -294 1 0
c p weight 296 6.12323399573676603586882014729198302312846062338790031898128063403419218957424163818359375E-17 0
c p weight -296 1 0
c p weight 297 1 0
c p weight -297 1 0
c p weight 298 -1 0
c p weight -298 1 0
c p weight 300 -1 0
c p weight -300 1 0
c p weight 302 -1 0
c p weight -302 1 0
c p weight 304 6.12323399573676603586882014729198302312846062338790031898128063403419218957424163818359375E-17 0
c p weight -304 1 0
c p weight 305 1 0
c p weight -305 1 0
c p weight 306 -1 0
c p weight -306 1 0
c p weight 308 -1 0
c p weight -308 1 0
c p weight 311 -1 0
c p weight -311 1 0
c p weight 313 -1 0
c p weight -313 1 0
c p weight 315 6.12323399573676603586882014729198302312846062338790031898128063403419218957424163818359375E-17 0
c p weight -315 1 0
c p weight 316 1 0
c p weight -316 1 0
c p weight 317 -1 0
c p weight -317 1 0
c p weight 319 -1 0
c p weight -319 1 0
-21 0
-19 0
-17 0
-15 0
-13 0
-11 0
-9 0
-7 0
-5 0
-3 0
-1 0
23 1 -2 0
23 -1 2 0
-23 1 2 0
-23 -1 -2 0
-24 1 0
-24 2 0
24 -1 -2 0
25 -1 23 0
-25 1 23 0
-26 23 0
25 -26 -1 0
-25 -26 1 0
25 26 1 -23 0
-25 26 -1 -23 0
-27 23 0
25 -27 1 0
-25 -27 -1 0
25 27 -1 -23 0
-25 27 1 -23 0
-28 25 0
-28 23 0
-28 -1 0
28 -25 1 -23 0
29 25 -23 0
29 -25 23 0
-29 25 23 0
-29 -25 -23 0
-30 25 0
-30 23 0
30 -25 -23 0
31 3 -4 0
31 -3 4 0
-31 3 4 0
-31 -3 -4 0
-32 3 0
-32 4 0
32 -3 -4 0
33 -3 31 0
-33 3 31 0
-34 31 0
33 -34 -3 0
-33 -34 3 0
33 34 3 -31 0
-33 34 -3 -31 0
-35 31 0
33 -35 3 0
-33 -35 -3 0
33 35 -3 -31 0
-33 35 3 -31 0
-36 33 0
-36 31 0
-36 -3 0
36 -33 3 -31 0
37 33 -31 0
37 -33 31 0
-37 33 31 0
-37 -33 -31 0
-38 33 0
-38 31 0
38 -33 -31 0
39 33 -37 0
39 -33 37 0
-39 33 37 0
-39 -33 -37 0
-40 33 0
-40 37 0
40 -33 -37 0
41 -33 39 0
-41 33 39 0
-42 39 0
41 -42 -33 0
-41 -42 33 0
41 42 33 -39 0
-41 42 -33 -39 0
-43 39 0
41 -43 33 0
-41 -43 -33 0
41 43 -33 -39 0
-41 43 33 -39 0
-44 41 0
-44 39 0
-44 -33 0
44 -41 33 -39 0
45 41 -39 0
45 -41 39 0
-45 41 39 0
-45 -41 -39 0
-46 41 0
-46 39 0
46 -41 -39 0
47 25 -41 0
47 -25 41 0
-47 25 41 0
-47 -25 -41 0
48 29 -45 0
48 -29 45 0
-48 29 45 0
-48 -29 -45 0
-49 25 0
-49 45 0
-49 41 -29 0
-49 -41 29 0
49 -25 41 29 -45 0
49 -25 -41 -29 -45 0
50 47 -45 0
50 -47 45 0
-50 47 45 0
-50 -47 -45 0
-51 47 0
-51 45 0
51 -47 -45 0
52 -47 50 0
-52 47 50 0
-53 50 0
52 -53 -47 0
-52 -53 47 0
52 53 47 -50 0
-52 53 -47 -50 0
-54 50 0
52 -54 47 0
-52 -54 -47 0
52 54 -47 -50 0
-52 54 47 -50 0
-55 52 0
-55 50 0
-55 -47 0
55 -52 47 -50 0
56 52 -50 0
56 -52 50 0
-56 52 50 0
-56 -52 -50 0
-57 52 0
-57 50 0
57 -52 -50 0
58 5 -6 0
58 -5 6 0
-58 5 6 0
-58 -5 -6 0
-59 5 0
-59 6 0
59 -5 -6 0
60 -5 58 0
-60 5 58 0
-61 58 0
60 -61 -5 0
-60 -61 5 0
60 61 5 -58 0
-60 61 -5 -58 0
-62 58 0
60 -62 5 0
-60 -62 -5 0
60 62 -5 -58 0
-60 62 5 -58 0
-63 60 0
-63 58 0
-63 -5 0
63 -60 5 -58 0
64 60 -58 0
64 -60 58 0
-64 60 58 0
-64 -60 -58 0
-65 60 0
-65 58 0
65 -60 -58 0
66 60 -64 0
66 -60 64 0
-66 60 64 0
-66 -60 -64 0
-67 60 0
-67 64 0
67 -60 -64 0
68 -60 66 0
-68 60 66 0
-69 66 0
68 -69 -60 0
-68 -69 60 0
68 69 60 -66 0
-68 69 -60 -66 0
-70 66 0
68 -70 60 0
-68 -70 -60 0
68 70 -60 -66 0
-68 70 60 -66 0
-71 68 0
-71 66 0
-71 -60 0
71 -68 60 -66 0
72 68 -66 0
72 -68 66 0
-72 68 66 0
-72 -68 -66 0
-73 68 0
-73 66 0
73 -68 -66 0
74 25 -68 0
74 -25 68 0
-74 25 68 0
-74 -25 -68 0
75 48 -72 0
75 -48 72 0
-75 48 72 0
-75 -48 -72 0
-76 25 0
-76 72 0
-76 68 -48 0
-76 -68 48 0
76 -25 68 48 -72 0
76 -25 -68 -48 -72 0
77 74 -72 0
77 -74 72 0
-77 74 72 0
-77 -74 -72 0
-78 74 0
-78 72 0
78 -74 -72 0
79 -74 77 0
-79 74 77 0
-80 77 0
79 -80 -74 0
-79 -80 74 0
79 80 74 -77 0
-79 80 -74 -77 0
-81 77 0
79 -81 74 0
-79 -81 -74 0
79 81 -74 -77 0
-79 81 74 -77 0
-82 79 0
-82 77 0
-82 -74 0
82 -79 74 -77 0
83 79 -77 0
83 -79 77 0
-83 79 77 0
-83 -79 -77 0
-84 79 0
-84 77 0
84 -79 -77 0
85 7 -8 0
85 -7 8 0
-85 7 8 0
-85 -7 -8 0
-86 7 0
-86 8 0
86 -7 -8 0
87 -7 85 0
-87 7 85 0
-88 85 0
87 -88 -7 0
-87 -88 7 0
87 88 7 -85 0
-87 88 -7 -85 0
-89 85 0
87 -89 7 0
-87 -89 -7 0
87 89 -7 -85 0
-87 89 7 -85 0
-90 87 0
-90 85 0
-90 -7 0
90 -87 7 -85 0
91 87 -85 0
91 -87 85 0
-91 87 85 0
-91 -87 -85 0
-92 87 0
-92 85 0
92 -87 -85 0
93 9 -10 0
93 -9 10 0
-93 9 10 0
-93 -9 -10 0
-94 9 0
-94 10 0
94 -9 -10 0
95 -9 93 0
-95 9 93 0
-96 93 0
95 -96 -9 0
-95 -96 9 0
95 96 9 -93 0
-95 96 -9 -93 0
-97 93 0
95 -97 9 0
-95 -97 -9 0
95 97 -9 -93 0
-95 97 9 -93 0
-98 95 0
-98 93 0
-98 -9 0
98 -95 9 -93 0
99 95 -93 0
99 -95 93 0
-99 95 93 0
-99 -95 -93 0
-100 95 0
-100 93 0
100 -95 -93 0
101 95 -99 0
101 -95 99 0
-101 95 99 0
-101 -95 -99 0
-102 95 0
-102 99 0
102 -95 -99 0
103 -95 101 0
-103 95 101 0
-104 101 0
103 -104 -95 0
-103 -104 95 0
103 104 95 -101 0
-103 104 -95 -101 0
-105 101 0
103 -105 95 0
-103 -105 -95 0
103 105 -95 -101 0
-103 105 95 -101 0
-106 103 0
-106 101 0
-106 -95 0
106 -103 95 -101 0
107 103 -101 0
107 -103 101 0
-107 103 101 0
-107 -103 -101 0
-108 103 0
-108 101 0
108 -103 -101 0
109 52 -103 0
109 -52 103 0
-109 52 103 0
-109 -52 -103 0
110 56 -107 0
110 -56 107 0
-110 56 107 0
-110 -56 -107 0
-111 52 0
-111 107 0
-111 103 -56 0
-111 -103 56 0
111 -52 103 56 -107 0
111 -52 -103 -56 -107 0
112 109 -107 0
112 -109 107 0
-112 109 107 0
-112 -109 -107 0
-113 109 0
-113 107 0
113 -109 -107 0
114 -109 112 0
-114 109 112 0
-115 112 0
114 -115 -109 0
-114 -115 109 0
114 115 109 -112 0
-114 115 -109 -112 0
-116 112 0
114 -116 109 0
-114 -116 -109 0
114 116 -109 -112 0
-114 116 109 -112 0
-117 114 0
-117 112 0
-117 -109 0
117 -114 109 -112 0
118 114 -112 0
118 -114 112 0
-118 114 112 0
-118 -114 -112 0
-119 114 0
-119 112 0
119 -114 -112 0
120 114 -118 0
120 -114 118 0
-120 114 118 0
-120 -114 -118 0
-121 114 0
-121 118 0
121 -114 -118 0
122 -114 120 0
-122 114 120 0
-123 120 0
122 -123 -114 0
-122 -123 114 0
122 123 114 -120 0
-122 123 -114 -120 0
-124 120 0
122 -124 114 0
-122 -124 -114 0
122 124 -114 -120 0
-122 124 114 -120 0
-125 122 0
-125 120 0
-125 -114 0
125 -122 114 -120 0
126 122 -120 0
126 -122 120 0
-126 122 120 0
-126 -122 -120 0
-127 122 0
-127 120 0
127 -122 -120 0
128 87 -122 0
128 -87 122 0
-128 87 122 0
-128 -87 -122 0
129 91 -126 0
129 -91 126 0
-129 91 126 0
-129 -91 -126 0
-130 87 0
-130 126 0
-130 122 -91 0
-130 -122 91 0
130 -87 122 91 -126 0
130 -87 -122 -91 -126 0
131 128 -126 0
131 -128 126 0
-131 128 126 0
-131 -128 -126 0
-132 128 0
-132 126 0
132 -128 -126 0
133 -128 131 0
-133 128 131 0
-134 131 0
133 -134 -128 0
-133 -134 128 0
133 134 128 -131 0
-133 134 -128 -131 0
-135 131 0
133 -135 128 0
-133 -135 -128 0
133 135 -128 -131 0
-133 135 128 -131 0
-136 133 0
-136 131 0
-136 -128 0
136 -133 128 -131 0
137 133 -131 0
137 -133 131 0
-137 133 131 0
-137 -133 -131 0
-138 133 0
-138 131 0
138 -133 -131 0
139 11 -12 0
139 -11 12 0
-139 11 12 0
-139 -11 -12 0
-140 11 0
-140 12 0
140 -11 -12 0
141 -11 139 0
-141 11 139 0
-142 139 0
141 -142 -11 0
-141 -142 11 0
141 142 11 -139 0
-141 142 -11 -139 0
-143 139 0
141 -143 11 0
-141 -143 -11 0
141 143 -11 -139 0
-141 143 11 -139 0
-144 141 0
-144 139 0
-144 -11 0
144 -141 11 -139 0
145 141 -139 0
145 -141 139 0
-145 141 139 0
-145 -141 -139 0
-146 141 0
-146 139 0
146 -141 -139 0
147 141 -145 0
147 -141 145 0
-147 141 145 0
-147 -141 -145 0
-148 141 0
-148 145 0
148 -141 -145 0
149 -141 147 0
-149 141 147 0
-150 147 0
149 -150 -141 0
-149 -150 141 0
149 150 141 -147 0
-149 150 -141 -147 0
-151 147 0
149 -151 141 0
-149 -151 -141 0
149 151 -141 -147 0
-149 151 141 -147 0
-152 149 0
-152 147 0
-152 -141 0
152 -149 141 -147 0
153 149 -147 0
153 -149 147 0
-153 149 147 0
-153 -149 -147 0
-154 149 0
-154 147 0
154 -149 -147 0
155 79 -149 0
155 -79 149 0
-155 79 149 0
-155 -79 -149 0
156 83 -153 0
156 -83 153 0
-156 83 153 0
-156 -83 -153 0
-157 79 0
-157 153 0
-157 149 -83 0
-157 -149 83 0
157 -79 149 83 -153 0
157 -79 -149 -83 -153 0
158 155 -153 0
158 -155 153 0
-158 155 153 0
-158 -155 -153 0
-159 155 0
-159 153 0
159 -155 -153 0
160 -155 158 0
-160 155 158 0
-161 158 0
160 -161 -155 0
-160 -161 155 0
160 161 155 -158 0
-160 161 -155 -158 0
-162 158 0
160 -162 155 0
-160 -162 -155 0
160 162 -155 -158 0
-160 162 155 -158 0
-163 160 0
-163 158 0
-163 -155 0
163 -160 155 -158 0
164 160 -158 0
164 -160 158 0
-164 160 158 0
-164 -160 -158 0
-165 160 0
-165 158 0
165 -160 -158 0
166 13 -14 0
166 -13 14 0
-166 13 14 0
-166 -13 -14 0
-167 13 0
-167 14 0
167 -13 -14 0
168 -13 166 0
-168 13 166 0
-169 166 0
168 -169 -13 0
-168 -169 13 0
168 169 13 -166 0
-168 169 -13 -166 0
-170 166 0
168 -170 13 0
-168 -170 -13 0
168 170 -13 -166 0
-168 170 13 -166 0
-171 168 0
-171 166 0
-171 -13 0
171 -168 13 -166 0
172 168 -166 0
172 -168 166 0
-172 168 166 0
-172 -168 -166 0
-173 168 0
-173 166 0
173 -168 -166 0
174 168 -172 0
174 -168 172 0
-174 168 172 0
-174 -168 -172 0
-175 168 0
-175 172 0
175 -168 -172 0
176 -168 174 0
-176 168 174 0
-177 174 0
176 -177 -168 0
-176 -177 168 0
176 177 168 -174 0
-176 177 -168 -174 0
-178 174 0
176 -178 168 0
-176 -178 -168 0
176 178 -168 -174 0
-176 178 168 -174 0
-179 176 0
-179 174 0
-179 -168 0
179 -176 168 -174 0
180 176 -174 0
180 -176 174 0
-180 176 174 0
-180 -176 -174 0
-181 176 0
-181 174 0
181 -176 -174 0
182 87 -176 0
182 -87 176 0
-182 87 176 0
-182 -87 -176 0
183 129 -180 0
183 -129 180 0
-183 129 180 0
-183 -129 -180 0
-184 87 0
-184 180 0
-184 176 -129 0
-184 -176 129 0
184 -87 176 129 -180 0
184 -87 -176 -129 -180 0
185 182 -180 0
185 -182 180 0
-185 182 180 0
-185 -182 -180 0
-186 182 0
-186 180 0
186 -182 -180 0
187 -182 185 0
-187 182 185 0
-188 185 0
187 -188 -182 0
-187 -188 182 0
187 188 182 -185 0
-187 188 -182 -185 0
-189 185 0
187 -189 182 0
-187 -189 -182 0
187 189 -182 -185 0
-187 189 182 -185 0
-190 187 0
-190 185 0
-190 -182 0
190 -187 182 -185 0
191 187 -185 0
191 -187 185 0
-191 187 185 0
-191 -187 -185 0
-192 187 0
-192 185 0
192 -187 -185 0
193 15 -16 0
193 -15 16 0
-193 15 16 0
-193 -15 -16 0
-194 15 0
-194 16 0
194 -15 -16 0
195 -15 193 0
-195 15 193 0
-196 193 0
195 -196 -15 0
-195 -196 15 0
195 196 15 -193 0
-195 196 -15 -193 0
-197 193 0
195 -197 15 0
-195 -197 -15 0
195 197 -15 -193 0
-195 197 15 -193 0
-198 195 0
-198 193 0
-198 -15 0
198 -195 15 -193 0
199 195 -193 0
199 -195 193 0
-199 195 193 0
-199 -195 -193 0
-200 195 0
-200 193 0
200 -195 -193 0
201 195 -199 0
201 -195 199 0
-201 195 199 0
-201 -195 -199 0
-202 195 0
-202 199 0
202 -195 -199 0
203 -195 201 0
-203 195 201 0
-204 201 0
203 -204 -195 0
-203 -204 195 0
203 204 195 -201 0
-203 204 -195 -201 0
-205 201 0
203 -205 195 0
-203 -205 -195 0
203 205 -195 -201 0
-203 205 195 -201 0
-206 203 0
-206 201 0
-206 -195 0
206 -203 195 -201 0
207 203 -201 0
207 -203 201 0
-207 203 201 0
-207 -203 -201 0
-208 203 0
-208 201 0
208 -203 -201 0
209 187 -203 0
209 -187 203 0
-209 187 203 0
-209 -187 -203 0
210 191 -207 0
210 -191 207 0
-210 191 207 0
-210 -191 -207 0
-211 187 0
-211 207 0
-211 203 -191 0
-211 -203 191 0
211 -187 203 191 -207 0
211 -187 -203 -191 -207 0
212 209 -207 0
212 -209 207 0
-212 209 207 0
-212 -209 -207 0
-213 209 0
-213 207 0
213 -209 -207 0
214 -209 212 0
-214 209 212 0
-215 212 0
214 -215 -209 0
-214 -215 209 0
214 215 209 -212 0
-214 215 -209 -212 0
-216 212 0
214 -216 209 0
-214 -216 -209 0
214 216 -209 -212 0
-214 216 209 -212 0
-217 214 0
-217 212 0
-217 -209 0
217 -214 209 -212 0
218 214 -212 0
218 -214 212 0
-218 214 212 0
-218 -214 -212 0
-219 214 0
-219 212 0
219 -214 -212 0
220 17 -18 0
220 -17 18 0
-220 17 18 0
-220 -17 -18 0
-221 17 0
-221 18 0
221 -17 -18 0
222 -17 220 0
-222 17 220 0
-223 220 0
222 -223 -17 0
-222 -223 17 0
222 223 17 -220 0
-222 223 -17 -220 0
-224 220 0
222 -224 17 0
-222 -224 -17 0
222 224 -17 -220 0
-222 224 17 -220 0
-225 222 0
-225 220 0
-225 -17 0
225 -222 17 -220 0
226 222 -220 0
226 -222 220 0
-226 222 220 0
-226 -222 -220 0
-227 222 0
-227 220 0
227 -222 -220 0
228 222 -226 0
228 -222 226 0
-228 222 226 0
-228 -222 -226 0
-229 222 0
-229 226 0
229 -222 -226 0
230 -222 228 0
-230 222 228 0
-231 228 0
230 -231 -222 0
-230 -231 222 0
230 231 222 -228 0
-230 231 -222 -228 0
-232 228 0
230 -232 222 0
-230 -232 -222 0
230 232 -222 -228 0
-230 232 222 -228 0
-233 230 0
-233 228 0
-233 -222 0
233 -230 222 -228 0
234 230 -228 0
234 -230 228 0
-234 230 228 0
-234 -230 -228 0
-235 230 0
-235 228 0
235 -230 -228 0
236 160 -230 0
236 -160 230 0
-236 160 230 0
-236 -160 -230 0
237 164 -234 0
237 -164 234 0
-237 164 234 0
-237 -164 -234 0
-238 160 0
-238 234 0
-238 230 -164 0
-238 -230 164 0
238 -160 230 164 -234 0
238 -160 -230 -164 -234 0
239 236 -234 0
239 -236 234 0
-239 236 234 0
-239 -236 -234 0
-240 236 0
-240 234 0
240 -236 -234 0
241 -236 239 0
-241 236 239 0
-242 239 0
241 -242 -236 0
-241 -242 236 0
241 242 236 -239 0
-241 242 -236 -239 0
-243 239 0
241 -243 236 0
-241 -243 -236 0
241 243 -236 -239 0
-241 243 236 -239 0
-244 241 0
-244 239 0
-244 -236 0
244 -241 236 -239 0
245 241 -239 0
245 -241 239 0
-245 241 239 0
-245 -241 -239 0
-246 241 0
-246 239 0
246 -241 -239 0
247 19 -20 0
247 -19 20 0
-247 19 20 0
-247 -19 -20 0
-248 19 0
-248 20 0
248 -19 -20 0
249 -19 247 0
-249 19 247 0
-250 247 0
249 -250 -19 0
-249 -250 19 0
249 250 19 -247 0
-249 250 -19 -247 0
-251 247 0
249 -251 19 0
-249 -251 -19 0
249 251 -19 -247 0
-249 251 19 -247 0
-252 249 0
-252 247 0
-252 -19 0
252 -249 19 -247 0
253 249 -247 0
253 -249 247 0
-253 249 247 0
-253 -249 -247 0
-254 249 0
-254 247 0
254 -249 -247 0
255 249 -253 0
255 -249 253 0
-255 249 253 0
-255 -249 -253 0
-256 249 0
-256 253 0
256 -249 -253 0
257 -249 255 0
-257 249 255 0
-258 255 0
257 -258 -249 0
-257 -258 249 0
257 258 249 -255 0
-257 258 -249 -255 0
-259 255 0
257 -259 249 0
-257 -259 -249 0
257 259 -249 -255 0
-257 259 249 -255 0
-260 257 0
-260 255 0
-260 -249 0
260 -257 249 -255 0
261 257 -255 0
261 -257 255 0
-261 257 255 0
-261 -257 -255 0
-262 257 0
-262 255 0
262 -257 -255 0
263 241 -257 0
263 -241 257 0
-263 241 257 0
-263 -241 -257 0
264 245 -261 0
264 -245 261 0
-264 245 261 0
-264 -245 -261 0
-265 241 0
-265 261 0
-265 257 -245 0
-265 -257 245 0
265 -241 257 245 -261 0
265 -241 -257 -245 -261 0
266 263 -261 0
266 -263 261 0
-266 263 261 0
-266 -263 -261 0
-267 263 0
-267 261 0
267 -263 -261 0
268 -263 266 0
-268 263 266 0
-269 266 0
268 -269 -263 0
-268 -269 263 0
268 269 263 -266 0
-268 269 -263 -266 0
-270 266 0
268 -270 263 0
-268 -270 -263 0
268 270 -263 -266 0
-268 270 263 -266 0
-271 268 0
-271 266 0
-271 -263 0
271 -268 263 -266 0
272 268 -266 0
272 -268 266 0
-272 268 266 0
-272 -268 -266 0
-273 268 0
-273 266 0
273 -268 -266 0
274 21 -22 0
274 -21 22 0
-274 21 22 0
-274 -21 -22 0
-275 21 0
-275 22 0
275 -21 -22 0
276 -21 274 0
-276 21 274 0
-277 274 0
276 -277 -21 0
-276 -277 21 0
276 277 21 -274 0
-276 277 -21 -274 0
-278 274 0
276 -278 21 0
-276 -278 -21 0
276 278 -21 -274 0
-276 278 21 -274 0
-279 276 0
-279 274 0
-279 -21 0
279 -276 21 -274 0
280 276 -274 0
280 -276 274 0
-280 276 274 0
-280 -276 -274 0
-281 276 0
-281 274 0
281 -276 -274 0
282 276 -280 0
282 -276 280 0
-282 276 280 0
-282 -276 -280 0
-283 276 0
-283 280 0
283 -276 -280 0
284 -276 282 0
-284 276 282 0
-285 282 0
284 -285 -276 0
-284 -285 276 0
284 285 276 -282 0
-284 285 -276 -282 0
-286 282 0
284 -286 276 0
-284 -286 -276 0
284 286 -276 -282 0
-284 286 276 -282 0
-287 284 0
-287 282 0
-287 -276 0
287 -284 276 -282 0
288 284 -282 0
288 -284 282 0
-288 284 282 0
-288 -284 -282 0
-289 284 0
-289 282 0
289 -284 -282 0
290 214 -284 0
290 -214 284 0
-290 214 284 0
-290 -214 -284 0
291 218 -288 0
291 -218 288 0
-291 218 288 0
-291 -218 -288 0
-292 214 0
-292 288 0
-292 284 -218 0
-292 -284 218 0
292 -214 284 218 -288 0
292 -214 -284 -218 -288 0
293 290 -288 0
293 -290 288 0
-293 290 288 0
-293 -290 -288 0
-294 290 0
-294 288 0
294 -290 -288 0
295 -290 293 0
-295 290 293 0
-296 293 0
295 -296 -290 0
-295 -296 290 0
295 296 290 -293 0
-295 296 -290 -293 0
-297 293 0
295 -297 290 0
-295 -297 -290 0
295 297 -290 -293 0
-295 297 290 -293 0
-298 295 0
-298 293 0
-298 -290 0
298 -295 290 -293 0
299 295 -293 0
299 -295 293 0
-299 295 293 0
-299 -295 -293 0
-300 295 0
-300 293 0
300 -295 -293 0
301 295 -299 0
301 -295 299 0
-301 295 299 0
-301 -295 -299 0
-302 295 0
-302 299 0
302 -295 -299 0
303 -295 301 0
-303 295 301 0
-304 301 0
303 -304 -295 0
-303 -304 295 0
303 304 295 -301 0
-303 304 -295 -301 0
-305 301 0
303 -305 295 0
-303 -305 -295 0
303 305 -295 -301 0
-303 305 295 -301 0
-306 303 0
-306 301 0
-306 -295 0
306 -303 295 -301 0
307 303 -301 0
307 -303 301 0
-307 303 301 0
-307 -303 -301 0
-308 303 0
-308 301 0
308 -303 -301 0
309 268 -303 0
309 -268 303 0
-309 268 303 0
-309 -268 -303 0
310 272 -307 0
310 -272 307 0
-310 272 307 0
-310 -272 -307 0
-311 268 0
-311 307 0
-311 303 -272 0
-311 -303 272 0
311 -268 303 272 -307 0
311 -268 -303 -272 -307 0
312 309 -307 0
312 -309 307 0
-312 309 307 0
-312 -309 -307 0
-313 309 0
-313 307 0
313 -309 -307 0
314 -309 312 0
-314 309 312 0
-315 312 0
314 -315 -309 0
-314 -315 309 0
314 315 309 -312 0
-314 315 -309 -312 0
-316 312 0
314 -316 309 0
-314 -316 -309 0
314 316 -309 -312 0
-314 316 309 -312 0
-317 314 0
-317 312 0
-317 -309 0
317 -314 309 -312 0
318 314 -312 0
318 -314 312 0
-318 314 312 0
-318 -314 -312 0
-319 314 0
-319 312 0
319 -314 -312 0
-25 0
-52 0
-110 0
-79 0
-156 0
-87 0
-183 0
-133 0
-137 0
-160 0
-237 0
-187 0
-210 0
-214 0
-291 0
-241 0
-264 0
-268 0
-310 0
-314 0
-318 0
